NAME symbiosis_srl_ilp
* Max problem is converted into Min one
ROWS
 N  OBJ
 L  constraint1_5910
 L  constraint2_5910
 L  constraint2_5911
 L  constraint2_5912
 L  constraint2_5913
COLUMNS
    MARKER    'MARKER'                 'INTORG'
    Z_591_0_0  OBJ       -7.5766120120649056e-05
    Z_591_0_0  constraint1_5910  1
    Z_591_0_0  constraint2_5910  1
    Z_591_0_1  OBJ       -2.7665951911880191e-03
    Z_591_0_1  constraint1_5910  1
    Z_591_0_1  constraint2_5911  1
    Z_591_0_2  OBJ       -8.4245799193695114e-01
    Z_591_0_2  constraint1_5910  1
    Z_591_0_2  constraint2_5912  1
    Z_591_0_3  OBJ       -3.2652563744673194e-03
    Z_591_0_3  constraint1_5910  1
    Z_591_0_3  constraint2_5913  1
    Z_591_0_4  OBJ       -5.1434390377272869e-02
    Z_591_0_4  constraint1_5910  1
    MARKER    'MARKER'                 'INTEND'
RHS
    RHS1      constraint1_5910  1
    RHS1      constraint2_5910  1
    RHS1      constraint2_5911  1
    RHS1      constraint2_5912  1
    RHS1      constraint2_5913  1
BOUNDS
 UP BND1      Z_591_0_0  1
 UP BND1      Z_591_0_1  1
 UP BND1      Z_591_0_2  1
 UP BND1      Z_591_0_3  1
 UP BND1      Z_591_0_4  1
ENDATA
